Welcome to the CBC MILP Solver 
Version: Trunk
Build Date: Apr 16 2020 

Starting solution of the Linear programming relaxation problem using Primal Simplex

Using Python-MIP package version 1.8.1
Machines:  3 Jobs:  3
Order: 
Job  0 : machine 1 ( 7 ) machine 2 ( 7 ) machine 0 ( 1 ) 
Job  1 : machine 1 ( 4 ) machine 0 ( 3 ) machine 2 ( 7 ) 
Job  2 : machine 1 ( 7 ) machine 2 ( 6 ) machine 0 ( 2 ) 
K:  33
Job  0 , e: machine  0 ( 14 ) machine  1 ( 0 ) machine  2 ( 7 ) 
Job  1 , e: machine  0 ( 4 ) machine  1 ( 0 ) machine  2 ( 7 ) 
Job  2 , e: machine  0 ( 13 ) machine  1 ( 0 ) machine  2 ( 7 ) 
Job  0 , f: machine  0 ( 0 ) machine  1 ( 8 ) machine  2 ( 1 ) 
Job  1 , f: machine  0 ( 7 ) machine  1 ( 10 ) machine  2 ( 0 ) 
Job  2 , f: machine  0 ( 0 ) machine  1 ( 8 ) machine  2 ( 2 ) 
EST and LST:
Job: 0 Machine: 0 EST: 14 LST: 32
Job: 0 Machine: 1 EST: 0 LST: 18
Job: 0 Machine: 2 EST: 7 LST: 25
Job: 1 Machine: 0 EST: 4 LST: 23
Job: 1 Machine: 1 EST: 0 LST: 19
Job: 1 Machine: 2 EST: 7 LST: 26
Job: 2 Machine: 0 EST: 13 LST: 31
Job: 2 Machine: 1 EST: 0 LST: 18
Job: 2 Machine: 2 EST: 7 LST: 25
Order:
Job: 0 Machine: 0 = 2 
Job: 0 Machine: 1 = 0 
Job: 0 Machine: 2 = 1 
Job: 1 Machine: 0 = 1 
Job: 1 Machine: 1 = 0 
Job: 1 Machine: 2 = 2 
Job: 2 Machine: 0 = 2 
Job: 2 Machine: 1 = 0 
Job: 2 Machine: 2 = 1 
Distances:
Job 0, Machine 1 -> Machine 2: distance 7
Job 0, Machine 1 -> Machine 0: distance 14
Job 0, Machine 2 -> Machine 0: distance 7
Job 1, Machine 1 -> Machine 0: distance 4
Job 1, Machine 1 -> Machine 2: distance 7
Job 1, Machine 0 -> Machine 2: distance 3
Job 2, Machine 1 -> Machine 2: distance 7
Job 2, Machine 1 -> Machine 0: distance 13
Job 2, Machine 2 -> Machine 0: distance 6
McCormic linearization
14.0 13.0 2
0.0 0.0 4
0.0 0.0 7
0.0 0.0 7
7.0 7.0 7
7.0 7.0 6
[(0, 1), (0, 0), (2, 1), (2, 0), (1, 1)]
obj:  0.0
solutions:  1
+ 0.14285714285714285x(0,1) + 0.14285714285714285x(2,1) 
C:  18.5
x(0,0) = 17.50	 x(0,1) = 3.50	 x(0,2) = 10.50	 
x(1,0) = 8.50	 x(1,1) = 4.50	 x(1,2) = 11.50	 
x(2,0) = 16.50	 x(2,1) = 3.50	 x(2,2) = 10.50	 
y(0,1,0) = 0.00	 y(1,0,0) = 1.00	 
y(0,2,0) = 0.90	 y(2,0,0) = 0.10	 
y(1,2,0) = 0.59	 y(2,1,0) = 0.41	 
y(0,1,1) = 0.22	 y(1,0,1) = 0.78	 
y(0,2,1) = 0.50	 y(2,0,1) = 0.50	 
y(1,2,1) = 0.36	 y(2,1,1) = 0.64	 
y(0,1,2) = 0.50	 y(1,0,2) = 0.50	 
y(0,2,2) = 0.42	 y(2,0,2) = 0.58	 
y(1,2,2) = 0.50	 y(2,1,2) = 0.50	 
17.500000000000004 16.5 2
3.500000000000003 3.4999999999999973 7
4.499999999999999 3.4999999999999973 7
11.5 10.499999999999998 6
obj:  0.638095238095238
solutions:  1
+ 0.06666666666666667x(0,1) + 0.06666666666666668x(2,1) + 0.038095238095238085x(1,1) 
[(0, 1), (0, 0), (2, 1), (2, 0), (1, 1)]
cliques:  1 mip: 20
C:  20.983660130718953
x(0,0) = 19.87	 x(0,1) = 5.87	 x(0,2) = 12.87	 
x(1,0) = 9.51	 x(1,1) = 5.51	 x(1,2) = 12.51	 
x(2,0) = 18.98	 x(2,1) = 5.98	 x(2,2) = 12.98	 
y(0,1,0) = 0.00	 y(1,0,0) = 1.00	 
y(0,2,0) = 0.06	 y(2,0,0) = 0.94	 
y(1,2,0) = 0.62	 y(2,1,0) = 0.38	 
y(0,1,1) = 0.71	 y(1,0,1) = 0.29	 
y(0,2,1) = 0.31	 y(2,0,1) = 0.69	 
y(1,2,1) = 0.30	 y(2,1,1) = 0.70	 
y(0,1,2) = 0.31	 y(1,0,2) = 0.69	 
y(0,2,2) = 0.25	 y(2,0,2) = 0.75	 
y(1,2,2) = 0.71	 y(2,1,2) = 0.29	 
19.86601307189542 18.98366013071896 2
5.866013071895422 5.513071895424832 4
12.866013071895422 12.51307189542483 7
obj:  1.0000000000000002
erro
[(0, 1), (0, 0), (2, 1), (2, 0), (1, 1)]
cliques:  0 mip: 51
C:  22.463941299790356
x(0,0) = 21.46	 x(0,1) = 7.46	 x(0,2) = 14.46	 
x(1,0) = 7.61	 x(1,1) = 3.56	 x(1,2) = 10.61	 
x(2,0) = 18.50	 x(2,1) = 5.50	 x(2,2) = 12.50	 
y(0,1,0) = 0.00	 y(1,0,0) = 1.00	 
y(0,2,0) = 0.00	 y(2,0,0) = 1.00	 
y(1,2,0) = 0.67	 y(2,1,0) = 0.33	 
y(0,1,1) = 0.02	 y(1,0,1) = 0.98	 
y(0,2,1) = 0.20	 y(2,0,1) = 0.80	 
y(1,2,1) = 0.74	 y(2,1,1) = 0.26	 
y(0,1,2) = 0.12	 y(1,0,2) = 0.88	 
y(0,2,2) = 0.64	 y(2,0,2) = 0.36	 
y(1,2,2) = 0.78	 y(2,1,2) = 0.22	 
7.4639412997903545 3.560167714884692 4
7.4639412997903545 5.501677148846962 7
14.463941299790351 10.61481281820904 7
14.463941299790351 12.50167714884696 6
obj:  0.9999999999999998
erro
[(0, 1), (1, 2), (2, 1), (1, 1), (0, 2)]
cliques:  0 mip: 47
C:  23.393791118755455
x(0,0) = 22.39	 x(0,1) = 4.20	 x(0,2) = 11.20	 
x(1,0) = 13.39	 x(1,1) = 8.05	 x(1,2) = 16.39	 
x(2,0) = 19.20	 x(2,1) = 6.20	 x(2,2) = 13.20	 
y(0,1,0) = 0.00	 y(1,0,0) = 1.00	 
y(0,2,0) = 0.00	 y(2,0,0) = 1.00	 
y(1,2,0) = 0.93	 y(2,1,0) = 0.07	 
y(0,1,1) = 0.73	 y(1,0,1) = 0.27	 
y(0,2,1) = 0.72	 y(2,0,1) = 0.28	 
y(1,2,1) = 0.75	 y(2,1,1) = 0.25	 
y(0,1,2) = 0.63	 y(1,0,2) = 0.37	 
y(0,2,2) = 0.60	 y(2,0,2) = 0.40	 
y(1,2,2) = 0.61	 y(2,1,2) = 0.39	 
8.049825533405055 6.197176787742854 7
16.39379111875546 13.197176787742855 6
obj:  1.0000000000000002
erro
[(0, 1), (1, 2), (2, 1), (1, 1), (0, 2)]
cliques:  0 mip: 48
C:  24.257308252530944
x(0,0) = 23.26	 x(0,1) = 8.94	 x(0,2) = 15.94	 
x(1,0) = 12.55	 x(1,1) = 3.55	 x(1,2) = 17.26	 
x(2,0) = 17.03	 x(2,1) = 4.03	 x(2,2) = 11.03	 
y(0,1,0) = 0.00	 y(1,0,0) = 1.00	 
y(0,2,0) = 0.00	 y(2,0,0) = 1.00	 
y(1,2,0) = 0.97	 y(2,1,0) = 0.03	 
y(0,1,1) = 0.12	 y(1,0,1) = 0.88	 
y(0,2,1) = 0.33	 y(2,0,1) = 0.67	 
y(1,2,1) = 0.39	 y(2,1,1) = 0.61	 
y(0,1,2) = 0.32	 y(1,0,2) = 0.68	 
y(0,2,2) = 0.05	 y(2,0,2) = 0.95	 
y(1,2,2) = 0.09	 y(2,1,2) = 0.91	 
8.93767354933458 4.0335639602935105 7
15.937673549334578 11.033563960293506 6
obj:  1.093649290750255
erro
[(0, 1), (1, 2), (2, 1), (2, 2), (0, 2)]
cliques:  0 mip: 54
C:  25.000000000000004
x(0,0) = 24.00	 x(0,1) = 5.45	 x(0,2) = 12.45	 
x(1,0) = 13.38	 x(1,1) = 7.75	 x(1,2) = 18.00	 
x(2,0) = 19.04	 x(2,1) = 6.04	 x(2,2) = 13.04	 
y(0,1,0) = 0.00	 y(1,0,0) = 1.00	 
y(0,2,0) = 0.00	 y(2,0,0) = 1.00	 
y(1,2,0) = 0.89	 y(2,1,0) = 0.11	 
y(0,1,1) = 0.81	 y(1,0,1) = 0.19	 
y(0,2,1) = 0.35	 y(2,0,1) = 0.65	 
y(1,2,1) = 0.41	 y(2,1,1) = 0.59	 
y(0,1,2) = 0.85	 y(1,0,2) = 0.15	 
y(0,2,2) = 0.65	 y(2,0,2) = 0.35	 
y(1,2,2) = 0.12	 y(2,1,2) = 0.88	 
7.747524898182165 6.044714148944308 7
18.000000000000007 13.044714148944305 6
obj:  1.0611741220176678
erro
[(0, 1), (1, 2), (2, 1), (1, 1), (0, 2)]
cliques:  0 mip: 40
C:  25.000000000000004
x(0,0) = 24.00	 x(0,1) = 5.84	 x(0,2) = 12.84	 
x(1,0) = 12.51	 x(1,1) = 8.43	 x(1,2) = 18.00	 
x(2,0) = 18.06	 x(2,1) = 5.06	 x(2,2) = 12.06	 
y(0,1,0) = 0.00	 y(1,0,0) = 1.00	 
y(0,2,0) = 0.00	 y(2,0,0) = 1.00	 
y(1,2,0) = 0.26	 y(2,1,0) = 0.74	 
y(0,1,1) = 0.49	 y(1,0,1) = 0.51	 
y(0,2,1) = 0.69	 y(2,0,1) = 0.31	 
y(1,2,1) = 0.25	 y(2,1,1) = 0.75	 
y(0,1,2) = 0.93	 y(1,0,2) = 0.07	 
y(0,2,2) = 0.59	 y(2,0,2) = 0.41	 
y(1,2,2) = 0.09	 y(2,1,2) = 0.91	 
5.84355666136426 5.0607281278197656 7
8.427369179583765 5.0607281278197656 7
12.843556661364259 12.060728127819765 6
18.000000000000004 12.060728127819765 6
obj:  1.0479949546916498
erro
[(0, 1), (1, 2), (2, 1), (1, 1), (0, 2)]
cliques:  0 mip: 40
C:  25.000000000000004
x(0,0) = 24.00	 x(0,1) = 5.11	 x(0,2) = 12.11	 
x(1,0) = 14.74	 x(1,1) = 9.79	 x(1,2) = 17.74	 
x(2,0) = 21.02	 x(2,1) = 4.29	 x(2,2) = 15.02	 
y(0,1,0) = 0.00	 y(1,0,0) = 1.00	 
y(0,2,0) = 0.00	 y(2,0,0) = 1.00	 
y(1,2,0) = 0.85	 y(2,1,0) = 0.15	 
y(0,1,1) = 0.76	 y(1,0,1) = 0.24	 
y(0,2,1) = 0.69	 y(2,0,1) = 0.31	 
y(1,2,1) = 0.08	 y(2,1,1) = 0.92	 
y(0,1,2) = 0.95	 y(1,0,2) = 0.05	 
y(0,2,2) = 0.70	 y(2,0,2) = 0.30	 
y(1,2,2) = 0.44	 y(2,1,2) = 0.56	 
5.11201730189426 4.294876629361592 7
9.787935620302264 4.294876629361592 7
17.74167032055774 15.022958739857513 6
obj:  1.0000000000000002
erro
[(0, 1), (1, 2), (2, 1), (1, 1), (0, 2)]
cliques:  0 mip: 42
C:  25.0
x(0,0) = 24.00	 x(0,1) = 6.54	 x(0,2) = 13.54	 
x(1,0) = 11.24	 x(1,1) = 7.24	 x(1,2) = 17.55	 
x(2,0) = 19.34	 x(2,1) = 5.30	 x(2,2) = 13.34	 
y(0,1,0) = 0.00	 y(1,0,0) = 1.00	 
y(0,2,0) = 0.00	 y(2,0,0) = 1.00	 
y(1,2,0) = 0.35	 y(2,1,0) = 0.65	 
y(0,1,1) = 0.25	 y(1,0,1) = 0.75	 
y(0,2,1) = 0.67	 y(2,0,1) = 0.33	 
y(1,2,1) = 0.33	 y(2,1,1) = 0.67	 
y(0,1,2) = 0.88	 y(1,0,2) = 0.12	 
y(0,2,2) = 0.49	 y(2,0,2) = 0.51	 
y(1,2,2) = 0.22	 y(2,1,2) = 0.78	 
6.538284013494523 5.296612444695382 7
7.238471087507849 5.296612444695382 7
13.53828401349452 13.341394801236975 6
17.5457351158539 13.341394801236975 6
obj:  1.0647443767367688
erro
[(0, 1), (1, 2), (2, 1), (1, 1), (0, 2)]
cliques:  0 mip: 42
C:  24.999999999999996
x(0,0) = 24.00	 x(0,1) = 5.11	 x(0,2) = 12.11	 
x(1,0) = 15.00	 x(1,1) = 9.68	 x(1,2) = 18.00	 
x(2,0) = 22.00	 x(2,1) = 4.35	 x(2,2) = 12.00	 
y(0,1,0) = 0.00	 y(1,0,0) = 1.00	 
y(0,2,0) = 0.00	 y(2,0,0) = 1.00	 
y(1,2,0) = 0.31	 y(2,1,0) = 0.69	 
y(0,1,1) = 0.83	 y(1,0,1) = 0.17	 
y(0,2,1) = 0.61	 y(2,0,1) = 0.39	 
y(1,2,1) = 0.14	 y(2,1,1) = 0.86	 
y(0,1,2) = 0.85	 y(1,0,2) = 0.15	 
y(0,2,2) = 0.47	 y(2,0,2) = 0.53	 
y(1,2,2) = 0.00	 y(2,1,2) = 1.00	 
23.999999999999993 21.999999999999996 2
5.113118954044768 4.354474534827529 7
9.681711394473483 4.354474534827529 7
17.999999999999993 12.000000000007555 6
obj:  1.0
erro
[(0, 1), (0, 0), (2, 1), (2, 0), (1, 1)]
cliques:  0 mip: 26
C:  25.0
x(0,0) = 24.00	 x(0,1) = 6.57	 x(0,2) = 13.57	 
x(1,0) = 15.00	 x(1,1) = 8.79	 x(1,2) = 18.00	 
x(2,0) = 22.00	 x(2,1) = 3.63	 x(2,2) = 12.10	 
y(0,1,0) = 0.00	 y(1,0,0) = 1.00	 
y(0,2,0) = 0.00	 y(2,0,0) = 1.00	 
y(1,2,0) = 1.00	 y(2,1,0) = 0.00	 
y(0,1,1) = 0.58	 y(1,0,1) = 0.42	 
y(0,2,1) = 0.41	 y(2,0,1) = 0.59	 
y(1,2,1) = 0.07	 y(2,1,1) = 0.93	 
y(0,1,2) = 0.89	 y(1,0,2) = 0.11	 
y(0,2,2) = 0.38	 y(2,0,2) = 0.62	 
y(1,2,2) = 0.12	 y(2,1,2) = 0.88	 
6.567635463673852 3.6284796960776817 7
8.792240496458943 3.6284796960776817 7
13.567635463673854 12.09948572393558 6
18.0 12.09948572393558 6
obj:  1.0146835057533
erro
[(0, 1), (1, 2), (2, 1), (1, 1), (0, 2)]
cliques:  0 mip: 30
C:  25.000000000000004
x(0,0) = 24.00	 x(0,1) = 4.36	 x(0,2) = 11.36	 
x(1,0) = 14.94	 x(1,1) = 9.97	 x(1,2) = 17.94	 
x(2,0) = 21.94	 x(2,1) = 4.95	 x(2,2) = 11.95	 
y(0,1,0) = 0.00	 y(1,0,0) = 1.00	 
y(0,2,0) = 0.00	 y(2,0,0) = 1.00	 
y(1,2,0) = 0.99	 y(2,1,0) = 0.01	 
y(0,1,1) = 0.79	 y(1,0,1) = 0.21	 
y(0,2,1) = 0.73	 y(2,0,1) = 0.27	 
y(1,2,1) = 0.20	 y(2,1,1) = 0.80	 
y(0,1,2) = 0.98	 y(1,0,2) = 0.02	 
y(0,2,2) = 0.48	 y(2,0,2) = 0.52	 
y(1,2,2) = 0.08	 y(2,1,2) = 0.92	 
9.967319731045169 4.946816050570481 7
17.9447888000772 11.946816050570481 6
obj:  0.9999999999999999
erro
[(0, 1), (1, 2), (2, 1), (1, 1), (0, 2)]
cliques:  0 mip: 43
C:  25.000000000000004
x(0,0) = 24.00	 x(0,1) = 6.44	 x(0,2) = 13.44	 
x(1,0) = 15.00	 x(1,1) = 7.84	 x(1,2) = 18.00	 
x(2,0) = 20.84	 x(2,1) = 4.87	 x(2,2) = 11.87	 
y(0,1,0) = 0.00	 y(1,0,0) = 1.00	 
y(0,2,0) = 0.00	 y(2,0,0) = 1.00	 
y(1,2,0) = 0.87	 y(2,1,0) = 0.13	 
y(0,1,1) = 0.63	 y(1,0,1) = 0.37	 
y(0,2,1) = 0.51	 y(2,0,1) = 0.49	 
y(1,2,1) = 0.26	 y(2,1,1) = 0.74	 
y(0,1,2) = 0.90	 y(1,0,2) = 0.10	 
y(0,2,2) = 0.31	 y(2,0,2) = 0.69	 
y(1,2,2) = 0.03	 y(2,1,2) = 0.97	 
6.435532192365217 4.8663768044618125 7
7.835106982418175 4.8663768044618125 7
13.435532192365217 11.866376804461813 6
obj:  1.0519408657853515
erro
[(0, 1), (1, 2), (2, 1), (1, 1), (0, 2)]
cliques:  0 mip: 40
C:  25.000000000000004
x(0,0) = 24.00	 x(0,1) = 5.90	 x(0,2) = 13.13	 
x(1,0) = 15.00	 x(1,1) = 8.94	 x(1,2) = 18.00	 
x(2,0) = 20.91	 x(2,1) = 4.00	 x(2,2) = 11.56	 
y(0,1,0) = 0.00	 y(1,0,0) = 1.00	 
y(0,2,0) = -0.00	 y(2,0,0) = 1.00	 
y(1,2,0) = 0.88	 y(2,1,0) = 0.12	 
y(0,1,1) = 0.72	 y(1,0,1) = 0.28	 
y(0,2,1) = 0.60	 y(2,0,1) = 0.40	 
y(1,2,1) = 0.16	 y(2,1,1) = 0.84	 
y(0,1,2) = 0.91	 y(1,0,2) = 0.09	 
y(0,2,2) = 0.38	 y(2,0,2) = 0.62	 
y(1,2,2) = 0.06	 y(2,1,2) = 0.94	 
5.89527966791012 3.9962585867956553 7
8.939808054264894 3.9962585867956553 7
13.133990204571994 11.561423599826295 6
obj:  1.0
erro
[(0, 1), (1, 2), (2, 1), (1, 1), (0, 2)]
cliques:  0 mip: 40
C:  25.000000000000004
x(0,0) = 24.00	 x(0,1) = 3.97	 x(0,2) = 10.97	 
x(1,0) = 13.49	 x(1,1) = 9.49	 x(1,2) = 18.00	 
x(2,0) = 18.77	 x(2,1) = 5.77	 x(2,2) = 12.77	 
y(0,1,0) = 0.00	 y(1,0,0) = 1.00	 
y(0,2,0) = 0.00	 y(2,0,0) = 1.00	 
y(1,2,0) = 0.64	 y(2,1,0) = 0.36	 
y(0,1,1) = 0.70	 y(1,0,1) = 0.30	 
y(0,2,1) = 0.79	 y(2,0,1) = 0.21	 
y(1,2,1) = 0.34	 y(2,1,1) = 0.66	 
y(0,1,2) = 0.94	 y(1,0,2) = 0.06	 
y(0,2,2) = 0.47	 y(2,0,2) = 0.53	 
y(1,2,2) = 0.06	 y(2,1,2) = 0.94	 
9.489543313237121 5.768091318078388 7
18.000000000000004 12.768091318078383 6
obj:  1.0106592084335542
erro
[(0, 1), (2, 1), (1, 1), (2, 2), (0, 2)]
cliques:  0 mip: 44
C:  25.000000000000004
x(0,0) = 24.00	 x(0,1) = 6.50	 x(0,2) = 13.50	 
x(1,0) = 13.00	 x(1,1) = 9.00	 x(1,2) = 18.00	 
x(2,0) = 16.43	 x(2,1) = 3.36	 x(2,2) = 10.43	 
y(0,1,0) = 0.00	 y(1,0,0) = 1.00	 
y(0,2,0) = 0.00	 y(2,0,0) = 1.00	 
y(1,2,0) = 0.38	 y(2,1,0) = 0.62	 
y(0,1,1) = 0.60	 y(1,0,1) = 0.40	 
y(0,2,1) = 0.39	 y(2,0,1) = 0.61	 
y(1,2,1) = 0.09	 y(2,1,1) = 0.91	 
y(0,1,2) = 0.90	 y(1,0,2) = 0.10	 
y(0,2,2) = 0.41	 y(2,0,2) = 0.59	 
y(1,2,2) = 0.00	 y(2,1,2) = 1.00	 
6.502952346483127 3.3557565416216373 7
8.997259445816663 3.3557565416216373 7
13.502952346483127 10.431366751177114 6
obj:  1.0
erro
[(0, 1), (1, 2), (2, 1), (1, 1), (0, 2)]
cliques:  0 mip: 40
C:  25.000000000000004
x(0,0) = 24.00	 x(0,1) = 5.01	 x(0,2) = 12.01	 
x(1,0) = 12.85	 x(1,1) = 8.85	 x(1,2) = 18.00	 
x(2,0) = 18.28	 x(2,1) = 5.28	 x(2,2) = 12.28	 
y(0,1,0) = 0.00	 y(1,0,0) = 1.00	 
y(0,2,0) = 0.00	 y(2,0,0) = 1.00	 
y(1,2,0) = 0.88	 y(2,1,0) = 0.12	 
y(0,1,1) = 0.57	 y(1,0,1) = 0.43	 
y(0,2,1) = 0.63	 y(2,0,1) = 0.37	 
y(1,2,1) = 0.30	 y(2,1,1) = 0.70	 
y(0,1,2) = 0.85	 y(1,0,2) = 0.15	 
y(0,2,2) = 0.62	 y(2,0,2) = 0.38	 
y(1,2,2) = 0.02	 y(2,1,2) = 0.98	 
8.845333234853758 5.280904748934431 7
18.000000000000004 12.280904748934427 6
obj:  1.0227036229172002
erro
[(0, 1), (1, 2), (2, 1), (1, 1), (0, 2)]
cliques:  0 mip: 43
C:  24.999999999999996
x(0,0) = 24.00	 x(0,1) = 3.74	 x(0,2) = 13.12	 
x(1,0) = 13.74	 x(1,1) = 9.74	 x(1,2) = 17.02	 
x(2,0) = 18.70	 x(2,1) = 5.70	 x(2,2) = 12.70	 
y(0,1,0) = 0.00	 y(1,0,0) = 1.00	 
y(0,2,0) = 0.00	 y(2,0,0) = 1.00	 
y(1,2,0) = 0.87	 y(2,1,0) = 0.13	 
y(0,1,1) = 0.75	 y(1,0,1) = 0.25	 
y(0,2,1) = 0.79	 y(2,0,1) = 0.21	 
y(1,2,1) = 0.33	 y(2,1,1) = 0.67	 
y(0,1,2) = 0.75	 y(1,0,2) = 0.25	 
y(0,2,2) = 0.55	 y(2,0,2) = 0.45	 
y(1,2,2) = 0.07	 y(2,1,2) = 0.93	 
9.743826510657051 5.697013288963409 7
13.115535563487372 12.69701328896341 6
17.02290961145926 12.69701328896341 6
obj:  1.0
erro
[(0, 1), (1, 2), (2, 1), (1, 1), (0, 2)]
cliques:  0 mip: 42
C:  24.999999999999996
x(0,0) = 24.00	 x(0,1) = 5.74	 x(0,2) = 12.74	 
x(1,0) = 13.01	 x(1,1) = 8.80	 x(1,2) = 17.72	 
x(2,0) = 17.55	 x(2,1) = 4.55	 x(2,2) = 11.55	 
y(0,1,0) = 0.00	 y(1,0,0) = 1.00	 
y(0,2,0) = 0.00	 y(2,0,0) = 1.00	 
y(1,2,0) = 0.91	 y(2,1,0) = 0.09	 
y(0,1,1) = 0.56	 y(1,0,1) = 0.44	 
y(0,2,1) = 0.59	 y(2,0,1) = 0.41	 
y(1,2,1) = 0.21	 y(2,1,1) = 0.79	 
y(0,1,2) = 0.87	 y(1,0,2) = 0.13	 
y(0,2,2) = 0.27	 y(2,0,2) = 0.73	 
y(1,2,2) = 0.06	 y(2,1,2) = 0.94	 
5.743663228540314 4.548530723562315 7
8.801225947154181 4.548530723562315 7
12.743663228540314 11.548530723562317 6
obj:  1.0214310614603346
erro
[(0, 1), (1, 2), (2, 1), (1, 1), (0, 2)]
cliques:  0 mip: 43
C:  24.999999999999996
x(0,0) = 24.00	 x(0,1) = 6.05	 x(0,2) = 13.05	 
x(1,0) = 12.88	 x(1,1) = 8.88	 x(1,2) = 18.00	 
x(2,0) = 18.20	 x(2,1) = 4.03	 x(2,2) = 12.20	 
y(0,1,0) = 0.00	 y(1,0,0) = 1.00	 
y(0,2,0) = 0.00	 y(2,0,0) = 1.00	 
y(1,2,0) = 0.93	 y(2,1,0) = 0.07	 
y(0,1,1) = 0.66	 y(1,0,1) = 0.34	 
y(0,2,1) = 0.55	 y(2,0,1) = 0.45	 
y(1,2,1) = 0.14	 y(2,1,1) = 0.86	 
y(0,1,2) = 0.91	 y(1,0,2) = 0.09	 
y(0,2,2) = 0.35	 y(2,0,2) = 0.65	 
y(1,2,2) = 0.14	 y(2,1,2) = 0.86	 
6.054264105633921 4.028083654368462 7
8.879825406210776 4.028083654368462 7
13.054264105633921 12.204404672976006 6
18.0 12.204404672976006 6
obj:  1.0104355804272358
erro
[(0, 1), (1, 2), (2, 1), (1, 1), (0, 2)]
cliques:  0 mip: 43
C:  24.999999999999996
x(0,0) = 24.00	 x(0,1) = 5.55	 x(0,2) = 12.55	 
x(1,0) = 13.43	 x(1,1) = 9.43	 x(1,2) = 18.00	 
x(2,0) = 18.16	 x(2,1) = 4.07	 x(2,2) = 12.16	 
y(0,1,0) = 0.00	 y(1,0,0) = 1.00	 
y(0,2,0) = 0.00	 y(2,0,0) = 1.00	 
y(1,2,0) = 0.57	 y(2,1,0) = 0.43	 
y(0,1,1) = 0.77	 y(1,0,1) = 0.23	 
y(0,2,1) = 0.48	 y(2,0,1) = 0.52	 
y(1,2,1) = 0.12	 y(2,1,1) = 0.88	 
y(0,1,2) = 0.79	 y(1,0,2) = 0.21	 
y(0,2,2) = 0.64	 y(2,0,2) = 0.36	 
y(1,2,2) = 0.17	 y(2,1,2) = 0.83	 
5.547545123714831 4.06592806862368 7
9.42642191340761 4.06592806862368 7
12.547545123714826 12.155113525221761 6
18.0 12.155113525221761 6
obj:  1.0000000000000002
erro
[(0, 1), (1, 2), (2, 1), (1, 1), (0, 2)]
cliques:  0 mip: 43
C:  24.999999999999996
x(0,0) = 24.00	 x(0,1) = 4.63	 x(0,2) = 14.35	 
x(1,0) = 13.43	 x(1,1) = 9.43	 x(1,2) = 16.89	 
x(2,0) = 17.99	 x(2,1) = 4.99	 x(2,2) = 11.99	 
y(0,1,0) = 0.00	 y(1,0,0) = 1.00	 
y(0,2,0) = 0.00	 y(2,0,0) = 1.00	 
y(1,2,0) = 0.55	 y(2,1,0) = 0.45	 
y(0,1,1) = 0.74	 y(1,0,1) = 0.26	 
y(0,2,1) = 0.72	 y(2,0,1) = 0.28	 
y(1,2,1) = 0.23	 y(2,1,1) = 0.77	 
y(0,1,2) = 0.76	 y(1,0,2) = 0.24	 
y(0,2,2) = 0.38	 y(2,0,2) = 0.62	 
y(1,2,2) = 0.11	 y(2,1,2) = 0.89	 
9.428050878013446 4.986539294530305 7
14.348534253071366 11.986539294530305 6
16.885124776266586 11.986539294530305 6
obj:  1.0000000000000002
erro
[(0, 1), (1, 2), (2, 1), (1, 1), (0, 2)]
cliques:  0 mip: 43
C:  24.999999999999996
x(0,0) = 24.00	 x(0,1) = 6.14	 x(0,2) = 13.79	 
x(1,0) = 14.77	 x(1,1) = 8.04	 x(1,2) = 17.77	 
x(2,0) = 21.93	 x(2,1) = 4.27	 x(2,2) = 12.71	 
y(0,1,0) = 0.00	 y(1,0,0) = 1.00	 
y(0,2,0) = 0.00	 y(2,0,0) = 1.00	 
y(1,2,0) = 0.99	 y(2,1,0) = 0.01	 
y(0,1,1) = 0.41	 y(1,0,1) = 0.59	 
y(0,2,1) = 0.42	 y(2,0,1) = 0.58	 
y(1,2,1) = 0.15	 y(2,1,1) = 0.85	 
y(0,1,2) = 0.88	 y(1,0,2) = 0.12	 
y(0,2,2) = 0.46	 y(2,0,2) = 0.54	 
y(1,2,2) = 0.25	 y(2,1,2) = 0.75	 
6.135371462372857 4.2684203316083895 7
8.04336436053282 4.2684203316083895 7
13.793762695161195 12.7078731007403 6
17.771128203230226 12.7078731007403 6
obj:  1.0
erro
[(0, 1), (1, 2), (2, 1), (1, 1), (0, 2)]
cliques:  0 mip: 44
C:  24.999999999999996
x(0,0) = 24.00	 x(0,1) = 7.10	 x(0,2) = 14.75	 
x(1,0) = 12.16	 x(1,1) = 8.16	 x(1,2) = 15.16	 
x(2,0) = 17.79	 x(2,1) = 3.81	 x(2,2) = 10.89	 
y(0,1,0) = 0.00	 y(1,0,0) = 1.00	 
y(0,2,0) = 0.00	 y(2,0,0) = 1.00	 
y(1,2,0) = 0.53	 y(2,1,0) = 0.47	 
y(0,1,1) = 0.46	 y(1,0,1) = 0.54	 
y(0,2,1) = 0.34	 y(2,0,1) = 0.66	 
y(1,2,1) = 0.11	 y(2,1,1) = 0.89	 
y(0,1,2) = 0.57	 y(1,0,2) = 0.43	 
y(0,2,2) = 0.32	 y(2,0,2) = 0.68	 
y(1,2,2) = 0.36	 y(2,1,2) = 0.64	 
7.102432181170673 3.8062005840159054 7
8.15507037815077 3.8062005840159054 7
14.753648008498011 10.89152433899369 6
15.15507037815077 10.89152433899369 6
obj:  1.0379115320848489
erro
[(0, 1), (1, 2), (2, 1), (1, 1), (0, 2)]
cliques:  0 mip: 44
C:  24.999999999999996
x(0,0) = 24.00	 x(0,1) = 6.50	 x(0,2) = 13.79	 
x(1,0) = 12.50	 x(1,1) = 8.50	 x(1,2) = 17.16	 
x(2,0) = 17.60	 x(2,1) = 3.90	 x(2,2) = 11.54	 
y(0,1,0) = 0.00	 y(1,0,0) = 1.00	 
y(0,2,0) = 0.00	 y(2,0,0) = 1.00	 
y(1,2,0) = 0.51	 y(2,1,0) = 0.49	 
y(0,1,1) = 0.66	 y(1,0,1) = 0.34	 
y(0,2,1) = 0.35	 y(2,0,1) = 0.65	 
y(1,2,1) = 0.10	 y(2,1,1) = 0.90	 
y(0,1,2) = 0.81	 y(1,0,2) = 0.19	 
y(0,2,2) = 0.46	 y(2,0,2) = 0.54	 
y(1,2,2) = 0.23	 y(2,1,2) = 0.77	 
6.502630522271521 3.896499209634472 7
8.495873607877817 3.896499209634472 7
13.786054580246574 11.537708004240875 6
17.156296192030535 11.537708004240875 6
obj:  1.0169276433795544
erro
[(0, 1), (1, 2), (2, 1), (1, 1), (0, 2)]
cliques:  0 mip: 0
iterações: 25 cortes cliques encontrados: 2 mip: 1010 objective:  24.999999999999996
Coin0506I Presolve 65 (-61) rows, 39 (-25) columns and 202 (-86) elements
Clp1000I sum of infeasibilities 3.24924e-06 - average 4.99884e-08, 0 fixed columns
Coin0506I Presolve 65 (0) rows, 39 (0) columns and 202 (0) elements
Clp0029I End of values pass after 39 iterations
Clp0000I Optimal - objective value 15
Clp0000I Optimal - objective value 15
Coin0511I After Postsolve, objective 15, infeasibilities - dual 0 (0), primal 0 (0)
Clp0000I Optimal - objective value 15
Clp0000I Optimal - objective value 15
Clp0000I Optimal - objective value 15
Coin0511I After Postsolve, objective 15, infeasibilities - dual 0 (0), primal 0 (0)
Clp0032I Optimal objective 15 - 0 iterations time 0.002, Presolve 0.00, Idiot 0.00
Coin3009W Conflict graph built in 0.000 seconds, density: 0.147%
